\* The Best Team *\
Maximize
OBJ: 6.7 ID_nfl.p.23997 + 8.7 ID_nfl.p.24057 + 2.1 ID_nfl.p.24063
 + 11.8 ID_nfl.p.24793 + 12.3 ID_nfl.p.24815 + 1.8 ID_nfl.p.24822
 + 5.1 ID_nfl.p.24830 + 6.5 ID_nfl.p.24851 + 3 ID_nfl.p.24891
 + 3.2 ID_nfl.p.24913 + 2.1 ID_nfl.p.24946 + 2.6 ID_nfl.p.24961
 + 1.6 ID_nfl.p.25158 + 9.8 ID_nfl.p.25712 + 8.2 ID_nfl.p.25793
 + 15 ID_nfl.p.25798 + 15.7 ID_nfl.p.25812 + 3.7 ID_nfl.p.25828
 + 7.8 ID_nfl.p.25876 + 6.6 ID_nfl.p.26060 + 1.3 ID_nfl.p.26253
 + 2.1 ID_nfl.p.26389 + 1.5 ID_nfl.p.26416 + 9 ID_nfl.p.26483
 + 0.8 ID_nfl.p.26535 + 4.3 ID_nfl.p.26612 + 3.5 ID_nfl.p.26631
 + 4.1 ID_nfl.p.26644 + 3.5 ID_nfl.p.26652 + 6.7 ID_nfl.p.26658
 + 5 ID_nfl.p.26660 + 13.4 ID_nfl.p.26671 + 0.9 ID_nfl.p.26696
 + 4.3 ID_nfl.p.26701 + 0.9 ID_nfl.p.26721 + 1.7 ID_nfl.p.26753
 + 2.4 ID_nfl.p.26756 + 7.2 ID_nfl.p.26767 + 7.8 ID_nfl.p.26804
 + 4.2 ID_nfl.p.26805 + 6 ID_nfl.p.26813 + 3.8 ID_nfl.p.26824
 + 0.9 ID_nfl.p.26949 + 2.5 ID_nfl.p.26950 + 1.8 ID_nfl.p.27135
 + 5.3 ID_nfl.p.27299 + 9.7 ID_nfl.p.27531 + 11.9 ID_nfl.p.27535
 + 5.7 ID_nfl.p.27538 + 0.9 ID_nfl.p.27560 + 17.4 ID_nfl.p.27564
 + 2.3 ID_nfl.p.27570 + 9.6 ID_nfl.p.27585 + 9 ID_nfl.p.27589
 + 17.3 ID_nfl.p.27590 + 1.4 ID_nfl.p.27618 + 9.9 ID_nfl.p.27619
 + 2.4 ID_nfl.p.27648 + 9.3 ID_nfl.p.27658 + 5.4 ID_nfl.p.27874
 + 5.1 ID_nfl.p.28026 + 5 ID_nfl.p.28046 + 3.1 ID_nfl.p.28214
 + 6.2 ID_nfl.p.28234 + 3.2 ID_nfl.p.28267 + 3.5 ID_nfl.p.28279
 + ID_nfl.p.28365 + 18.2 ID_nfl.p.28389 + 11.6 ID_nfl.p.28392
 + 10.9 ID_nfl.p.28398 + 7.5 ID_nfl.p.28402 + 6.1 ID_nfl.p.28408
 + 3.8 ID_nfl.p.28414 + 7.1 ID_nfl.p.28417 + 0.8 ID_nfl.p.28424
 + 0.2 ID_nfl.p.28425 + 2.5 ID_nfl.p.28442 + 2.6 ID_nfl.p.28443
 + ID_nfl.p.28456 + 12.9 ID_nfl.p.28461 + 6.2 ID_nfl.p.28464
 + 6.2 ID_nfl.p.28465 + 2.4 ID_nfl.p.28473 + 7.5 ID_nfl.p.28474
 + 0.8 ID_nfl.p.28477 + ID_nfl.p.28480 + 3.1 ID_nfl.p.28482
 + 7.9 ID_nfl.p.28493 + 3.3 ID_nfl.p.28495 + 2 ID_nfl.p.28514
 + 9.4 ID_nfl.p.28534 + 2.5 ID_nfl.p.28545 + 2.2 ID_nfl.p.28548
 + 3.6 ID_nfl.p.28559 + 8 ID_nfl.p.28592 + 1.2 ID_nfl.p.28617
 + 7.2 ID_nfl.p.28654 + 8.8 ID_nfl.p.28691 + 0.9 ID_nfl.p.28730
 + 0.6 ID_nfl.p.28800 + 0.7 ID_nfl.p.28875 + 2.6 ID_nfl.p.28947
 + 4.5 ID_nfl.p.28990 + 15.2 ID_nfl.p.29235 + 14.9 ID_nfl.p.29236
 + 17.2 ID_nfl.p.29238 + 0.5 ID_nfl.p.29256 + 3.5 ID_nfl.p.29257
 + 13.9 ID_nfl.p.29281 + 8.1 ID_nfl.p.29288 + 9.3 ID_nfl.p.29307
 + 15.6 ID_nfl.p.29325 + 0.9 ID_nfl.p.29341 + 2.9 ID_nfl.p.29344
 + 3.2 ID_nfl.p.29351 + 20.3 ID_nfl.p.29369 + 1.6 ID_nfl.p.29370
 + 2.6 ID_nfl.p.29372 + 5.8 ID_nfl.p.29377 + 5.5 ID_nfl.p.29383
 + 9.5 ID_nfl.p.29384 + 2.9 ID_nfl.p.29387 + 2.1 ID_nfl.p.29397
 + 1.8 ID_nfl.p.29410 + 4.3 ID_nfl.p.29420 + 13 ID_nfl.p.29435
 + 0.4 ID_nfl.p.29440 + 13.3 ID_nfl.p.29441 + 1.2 ID_nfl.p.29470
 + 6 ID_nfl.p.29560 + 5.9 ID_nfl.p.29609 + 7.9 ID_nfl.p.29650
 + 1.6 ID_nfl.p.29666 + 3.7 ID_nfl.p.29678 + 5.7 ID_nfl.p.29703
 + 7.3 ID_nfl.p.29785 + 2.4 ID_nfl.p.29913 + 2.8 ID_nfl.p.29951
 + 1.7 ID_nfl.p.29973 + 5.5 ID_nfl.p.30000 + 3.4 ID_nfl.p.30023
 + 2.3 ID_nfl.p.30112 + 13.3 ID_nfl.p.30115 + 20.6 ID_nfl.p.30121
 + 20.3 ID_nfl.p.30125 + 5.7 ID_nfl.p.30132 + 4.8 ID_nfl.p.30150
 + 8.9 ID_nfl.p.30153 + 17.6 ID_nfl.p.30154 + 6.3 ID_nfl.p.30157
 + 11.3 ID_nfl.p.30161 + 14.6 ID_nfl.p.30180 + 10.6 ID_nfl.p.30182
 + 11.7 ID_nfl.p.30197 + 9.2 ID_nfl.p.30209 + 7.5 ID_nfl.p.30223
 + 6.9 ID_nfl.p.30230 + 3.5 ID_nfl.p.30231 + 6.2 ID_nfl.p.30232
 + 13.7 ID_nfl.p.30256 + 2.9 ID_nfl.p.30259 + 2.9 ID_nfl.p.30267
 + 4.3 ID_nfl.p.30285 + 2 ID_nfl.p.30305 + 0.9 ID_nfl.p.30366
 + 3.4 ID_nfl.p.30396 + 1.8 ID_nfl.p.30487 + 7.7 ID_nfl.p.30502
 + 2 ID_nfl.p.30511 + ID_nfl.p.30513 + 4.7 ID_nfl.p.30551 + 2.8 ID_nfl.p.30552
 + 0.6 ID_nfl.p.30563 + 11.2 ID_nfl.p.30614 + 1.2 ID_nfl.p.30656
 + 3.6 ID_nfl.p.30784 + 4 ID_nfl.p.30860 + 1.1 ID_nfl.p.30891
 + 3.2 ID_nfl.p.30901 + 0.5 ID_nfl.p.30959 + 14.9 ID_nfl.p.30973
 + 18.8 ID_nfl.p.30977 + 1.1 ID_nfl.p.30980 + 3 ID_nfl.p.30995
 + 8.4 ID_nfl.p.30996 + 9.9 ID_nfl.p.31001 + 10 ID_nfl.p.31008
 + 9.3 ID_nfl.p.31010 + 4.5 ID_nfl.p.31012 + 4.3 ID_nfl.p.31014
 + 8.4 ID_nfl.p.31017 + 4.8 ID_nfl.p.31019 + 5.3 ID_nfl.p.31021
 + 6.4 ID_nfl.p.31029 + 9.5 ID_nfl.p.31031 + 8.7 ID_nfl.p.31041
 + 9.5 ID_nfl.p.31051 + 4.9 ID_nfl.p.31061 + 3.6 ID_nfl.p.31068
 + 1.1 ID_nfl.p.31071 + 3.4 ID_nfl.p.31073 + 5.7 ID_nfl.p.31074
 + 4 ID_nfl.p.31083 + 1.1 ID_nfl.p.31093 + 9.5 ID_nfl.p.31100
 + 0.7 ID_nfl.p.31107 + 1.8 ID_nfl.p.31114 + 1.8 ID_nfl.p.31126
 + 0.7 ID_nfl.p.31127 + 3.4 ID_nfl.p.31139 + 6.2 ID_nfl.p.31164
 + 2.8 ID_nfl.p.31171 + 2 ID_nfl.p.31178 + 1.7 ID_nfl.p.31180
 + 2.1 ID_nfl.p.31194 + 2.5 ID_nfl.p.31198 + 0.9 ID_nfl.p.31207
 + 2.7 ID_nfl.p.31210 + 0.6 ID_nfl.p.31220 + 7.2 ID_nfl.p.31223
 + 4.4 ID_nfl.p.31226 + 0.5 ID_nfl.p.31228 + 1.5 ID_nfl.p.31257
 + 16.1 ID_nfl.p.31301 + 2.2 ID_nfl.p.31302 + 2.4 ID_nfl.p.31320
 + 3.7 ID_nfl.p.31329 + 1.9 ID_nfl.p.31347 + 10.1 ID_nfl.p.31379
 + 3.5 ID_nfl.p.31394 + 6.1 ID_nfl.p.31424 + 0.8 ID_nfl.p.31425
 + 0.8 ID_nfl.p.31567 + 3.3 ID_nfl.p.31588 + 3.1 ID_nfl.p.31601
 + 1.3 ID_nfl.p.31662 + 2.4 ID_nfl.p.31749 + 15.9 ID_nfl.p.31833
 + 5 ID_nfl.p.31840 + 13 ID_nfl.p.31847 + 4.7 ID_nfl.p.31852
 + 15.7 ID_nfl.p.31856 + 8.8 ID_nfl.p.31857 + 2.5 ID_nfl.p.31864
 + 7.8 ID_nfl.p.31868 + 3.9 ID_nfl.p.31882 + 9.2 ID_nfl.p.31885
 + 2.2 ID_nfl.p.31889 + 4.4 ID_nfl.p.31894 + 2.7 ID_nfl.p.31901
 + 5.6 ID_nfl.p.31902 + 10.5 ID_nfl.p.31905 + 11.8 ID_nfl.p.31906
 + 8.7 ID_nfl.p.31908 + 4.3 ID_nfl.p.31925 + 4 ID_nfl.p.31928
 + 6.1 ID_nfl.p.31934 + 13.5 ID_nfl.p.31936 + 3.9 ID_nfl.p.31945
 + 0.2 ID_nfl.p.31952 + 1.5 ID_nfl.p.31953 + 5.1 ID_nfl.p.31960
 + 0.7 ID_nfl.p.31965 + 2.8 ID_nfl.p.31969 + 3.3 ID_nfl.p.31972
 + 6.5 ID_nfl.p.31981 + 3.1 ID_nfl.p.31984 + 4 ID_nfl.p.32006
 + 8.8 ID_nfl.p.32010 + 2.1 ID_nfl.p.32014 + 4.9 ID_nfl.p.32018
 + 0.3 ID_nfl.p.32019 + 2.5 ID_nfl.p.32038 + 3.1 ID_nfl.p.32040
 + 0.7 ID_nfl.p.32060 + 3.4 ID_nfl.p.32066 + 5.7 ID_nfl.p.32079
 + 1.6 ID_nfl.p.32123 + 2.2 ID_nfl.p.32187 + 1.1 ID_nfl.p.32225
 + 3.4 ID_nfl.p.32231 + 2.2 ID_nfl.p.32292 + 2.1 ID_nfl.p.32295
 + 0.5 ID_nfl.p.32342 + 1.1 ID_nfl.p.32344 + 3.7 ID_nfl.p.32439
 + 2.2 ID_nfl.p.32469 + 1.6 ID_nfl.p.32612 + 17.9 ID_nfl.p.5228
 + 20 ID_nfl.p.5479 + 0.8 ID_nfl.p.5967 + 4.3 ID_nfl.p.6405 + 7 ID_nfl.p.6762
 + 3.6 ID_nfl.p.6791 + 0.9 ID_nfl.p.6849 + 6.9 ID_nfl.p.7241
 + 13.4 ID_nfl.p.7426 + 9.1 ID_nfl.p.8261 + 6.8 ID_nfl.p.8263
 + 6.3 ID_nfl.p.8285 + 17 ID_nfl.p.8780 + 5.8 ID_nfl.p.9037
 + 10.6 ID_nfl.p.9496 + 10.2 ID_nfl.p.9547 + 0.9 ID_nfl.p.9678
 + 6.7 ID_nfl.t.1 + 7.3 ID_nfl.t.11 + 7.9 ID_nfl.t.13 + 9.3 ID_nfl.t.14
 + 6.7 ID_nfl.t.15 + 8.4 ID_nfl.t.17 + 8.5 ID_nfl.t.18 + 9.1 ID_nfl.t.2
 + 8.4 ID_nfl.t.20 + 6.3 ID_nfl.t.21 + 6 ID_nfl.t.22 + 9 ID_nfl.t.25
 + 6.1 ID_nfl.t.27 + 7.5 ID_nfl.t.28 + 7.6 ID_nfl.t.29 + 7.7 ID_nfl.t.3
 + 7 ID_nfl.t.30 + 7.5 ID_nfl.t.33 + 5.3 ID_nfl.t.34 + 5.1 ID_nfl.t.4
 + 8.3 ID_nfl.t.6 + 6.9 ID_nfl.t.7 + 5.4 ID_nfl.t.8
Subject To
_C1: 13 ID_nfl.p.23997 + 21 ID_nfl.p.24057 + 20 ID_nfl.p.24060
 + 10 ID_nfl.p.24063 + 29 ID_nfl.p.24793 + 22 ID_nfl.p.24815
 + 25 ID_nfl.p.24822 + 15 ID_nfl.p.24830 + 14 ID_nfl.p.24851
 + 10 ID_nfl.p.24891 + 10 ID_nfl.p.24912 + 10 ID_nfl.p.24913
 + 10 ID_nfl.p.24946 + 10 ID_nfl.p.24961 + 10 ID_nfl.p.24963
 + 10 ID_nfl.p.25158 + 10 ID_nfl.p.25291 + 10 ID_nfl.p.25370
 + 20 ID_nfl.p.25712 + 18 ID_nfl.p.25793 + 27 ID_nfl.p.25798
 + 28 ID_nfl.p.25812 + 10 ID_nfl.p.25828 + 18 ID_nfl.p.25876
 + 15 ID_nfl.p.26060 + 10 ID_nfl.p.26253 + 10 ID_nfl.p.26389
 + 10 ID_nfl.p.26416 + 20 ID_nfl.p.26483 + 10 ID_nfl.p.26535
 + 15 ID_nfl.p.26612 + 10 ID_nfl.p.26631 + 13 ID_nfl.p.26644
 + 10 ID_nfl.p.26652 + 20 ID_nfl.p.26658 + 10 ID_nfl.p.26660
 + 25 ID_nfl.p.26671 + 20 ID_nfl.p.26696 + 12 ID_nfl.p.26701
 + 20 ID_nfl.p.26721 + 10 ID_nfl.p.26753 + 10 ID_nfl.p.26756
 + 16 ID_nfl.p.26767 + 15 ID_nfl.p.26804 + 10 ID_nfl.p.26805
 + 12 ID_nfl.p.26813 + 10 ID_nfl.p.26824 + 20 ID_nfl.p.26949
 + 10 ID_nfl.p.26950 + 10 ID_nfl.p.27135 + 14 ID_nfl.p.27299
 + 20 ID_nfl.p.27531 + 36 ID_nfl.p.27535 + 14 ID_nfl.p.27538
 + 20 ID_nfl.p.27560 + 27 ID_nfl.p.27564 + 10 ID_nfl.p.27570
 + 16 ID_nfl.p.27585 + 19 ID_nfl.p.27589 + 30 ID_nfl.p.27590
 + 10 ID_nfl.p.27618 + 22 ID_nfl.p.27619 + 10 ID_nfl.p.27648
 + 10 ID_nfl.p.27652 + 13 ID_nfl.p.27658 + 20 ID_nfl.p.27692
 + 20 ID_nfl.p.27711 + 10 ID_nfl.p.27874 + 13 ID_nfl.p.28026
 + 10 ID_nfl.p.28046 + 10 ID_nfl.p.28141 + 10 ID_nfl.p.28214
 + 10 ID_nfl.p.28223 + 13 ID_nfl.p.28234 + 10 ID_nfl.p.28267
 + 10 ID_nfl.p.28279 + 10 ID_nfl.p.28365 + 31 ID_nfl.p.28389
 + 29 ID_nfl.p.28392 + 26 ID_nfl.p.28398 + 12 ID_nfl.p.28402
 + 10 ID_nfl.p.28408 + 10 ID_nfl.p.28414 + 14 ID_nfl.p.28417
 + 10 ID_nfl.p.28424 + 10 ID_nfl.p.28425 + 10 ID_nfl.p.28442
 + 10 ID_nfl.p.28443 + 10 ID_nfl.p.28456 + 22 ID_nfl.p.28461
 + 13 ID_nfl.p.28464 + 12 ID_nfl.p.28465 + 10 ID_nfl.p.28473
 + 16 ID_nfl.p.28474 + 20 ID_nfl.p.28477 + 10 ID_nfl.p.28480
 + 10 ID_nfl.p.28482 + 16 ID_nfl.p.28493 + 10 ID_nfl.p.28495
 + 10 ID_nfl.p.28514 + 22 ID_nfl.p.28534 + 20 ID_nfl.p.28535
 + 10 ID_nfl.p.28545 + 10 ID_nfl.p.28548 + 10 ID_nfl.p.28556
 + 10 ID_nfl.p.28559 + 21 ID_nfl.p.28592 + 10 ID_nfl.p.28617
 + 10 ID_nfl.p.28654 + 19 ID_nfl.p.28691 + 10 ID_nfl.p.28730
 + 10 ID_nfl.p.28800 + 10 ID_nfl.p.28875 + 10 ID_nfl.p.28887
 + 10 ID_nfl.p.28947 + 14 ID_nfl.p.28990 + 10 ID_nfl.p.29102
 + 25 ID_nfl.p.29235 + 28 ID_nfl.p.29236 + 34 ID_nfl.p.29238
 + 10 ID_nfl.p.29256 + 10 ID_nfl.p.29257 + 38 ID_nfl.p.29281
 + 19 ID_nfl.p.29288 + 14 ID_nfl.p.29307 + 28 ID_nfl.p.29325
 + 20 ID_nfl.p.29327 + 10 ID_nfl.p.29341 + 10 ID_nfl.p.29344
 + 10 ID_nfl.p.29351 + 10 ID_nfl.p.29353 + 38 ID_nfl.p.29369
 + 10 ID_nfl.p.29370 + 10 ID_nfl.p.29372 + 13 ID_nfl.p.29377
 + 10 ID_nfl.p.29383 + 14 ID_nfl.p.29384 + 10 ID_nfl.p.29387
 + 10 ID_nfl.p.29390 + 10 ID_nfl.p.29397 + 10 ID_nfl.p.29410
 + 10 ID_nfl.p.29420 + 20 ID_nfl.p.29421 + 10 ID_nfl.p.29422
 + 23 ID_nfl.p.29435 + 10 ID_nfl.p.29440 + 22 ID_nfl.p.29441
 + 10 ID_nfl.p.29470 + 10 ID_nfl.p.29560 + 10 ID_nfl.p.29609
 + 12 ID_nfl.p.29650 + 10 ID_nfl.p.29666 + 10 ID_nfl.p.29678
 + 14 ID_nfl.p.29703 + 12 ID_nfl.p.29785 + 10 ID_nfl.p.29913
 + 10 ID_nfl.p.29951 + 11 ID_nfl.p.29973 + 13 ID_nfl.p.30000
 + 10 ID_nfl.p.30023 + 10 ID_nfl.p.30112 + 21 ID_nfl.p.30115
 + 41 ID_nfl.p.30121 + 38 ID_nfl.p.30125 + 13 ID_nfl.p.30132
 + 10 ID_nfl.p.30150 + 20 ID_nfl.p.30153 + 32 ID_nfl.p.30154
 + 17 ID_nfl.p.30157 + 17 ID_nfl.p.30161 + 20 ID_nfl.p.30165
 + 30 ID_nfl.p.30180 + 27 ID_nfl.p.30182 + 32 ID_nfl.p.30197
 + 22 ID_nfl.p.30209 + 20 ID_nfl.p.30217 + 15 ID_nfl.p.30223
 + 13 ID_nfl.p.30230 + 10 ID_nfl.p.30231 + 12 ID_nfl.p.30232
 + 20 ID_nfl.p.30248 + 24 ID_nfl.p.30256 + 28 ID_nfl.p.30259
 + 10 ID_nfl.p.30263 + 10 ID_nfl.p.30267 + 11 ID_nfl.p.30285
 + 10 ID_nfl.p.30292 + 10 ID_nfl.p.30305 + 10 ID_nfl.p.30352
 + 20 ID_nfl.p.30366 + 10 ID_nfl.p.30373 + 10 ID_nfl.p.30396
 + 10 ID_nfl.p.30487 + 15 ID_nfl.p.30502 + 10 ID_nfl.p.30511
 + 10 ID_nfl.p.30513 + 10 ID_nfl.p.30523 + 10 ID_nfl.p.30531
 + 10 ID_nfl.p.30551 + 18 ID_nfl.p.30552 + 20 ID_nfl.p.30563
 + 10 ID_nfl.p.30577 + 10 ID_nfl.p.30592 + 20 ID_nfl.p.30614
 + 10 ID_nfl.p.30656 + 10 ID_nfl.p.30784 + 20 ID_nfl.p.30788
 + 10 ID_nfl.p.30860 + 10 ID_nfl.p.30891 + 10 ID_nfl.p.30901
 + 10 ID_nfl.p.30959 + 22 ID_nfl.p.30973 + 30 ID_nfl.p.30977
 + 20 ID_nfl.p.30980 + 10 ID_nfl.p.30995 + 22 ID_nfl.p.30996
 + 17 ID_nfl.p.31001 + 14 ID_nfl.p.31008 + 20 ID_nfl.p.31010
 + 10 ID_nfl.p.31012 + 10 ID_nfl.p.31014 + 16 ID_nfl.p.31017
 + 10 ID_nfl.p.31019 + 10 ID_nfl.p.31021 + 15 ID_nfl.p.31029
 + 19 ID_nfl.p.31031 + 12 ID_nfl.p.31041 + 20 ID_nfl.p.31051
 + 15 ID_nfl.p.31061 + 10 ID_nfl.p.31068 + 10 ID_nfl.p.31071
 + 10 ID_nfl.p.31073 + 11 ID_nfl.p.31074 + 10 ID_nfl.p.31083
 + 10 ID_nfl.p.31093 + 11 ID_nfl.p.31100 + 10 ID_nfl.p.31102
 + 10 ID_nfl.p.31107 + 10 ID_nfl.p.31114 + 10 ID_nfl.p.31126
 + 10 ID_nfl.p.31127 + 10 ID_nfl.p.31139 + 10 ID_nfl.p.31145
 + 12 ID_nfl.p.31164 + 10 ID_nfl.p.31171 + 10 ID_nfl.p.31178
 + 10 ID_nfl.p.31180 + 10 ID_nfl.p.31194 + 10 ID_nfl.p.31198
 + 10 ID_nfl.p.31207 + 10 ID_nfl.p.31210 + 10 ID_nfl.p.31220
 + 18 ID_nfl.p.31223 + 10 ID_nfl.p.31226 + 10 ID_nfl.p.31228
 + 10 ID_nfl.p.31257 + 27 ID_nfl.p.31301 + 10 ID_nfl.p.31302
 + 10 ID_nfl.p.31320 + 10 ID_nfl.p.31329 + 10 ID_nfl.p.31347
 + 19 ID_nfl.p.31379 + 10 ID_nfl.p.31391 + 10 ID_nfl.p.31394
 + 11 ID_nfl.p.31424 + 10 ID_nfl.p.31425 + 10 ID_nfl.p.31537
 + 10 ID_nfl.p.31557 + 10 ID_nfl.p.31567 + 10 ID_nfl.p.31588
 + 10 ID_nfl.p.31601 + 10 ID_nfl.p.31641 + 10 ID_nfl.p.31662
 + 10 ID_nfl.p.31749 + 25 ID_nfl.p.31833 + 12 ID_nfl.p.31840
 + 20 ID_nfl.p.31847 + 12 ID_nfl.p.31852 + 29 ID_nfl.p.31856
 + 22 ID_nfl.p.31857 + 10 ID_nfl.p.31864 + 13 ID_nfl.p.31868
 + 10 ID_nfl.p.31882 + 12 ID_nfl.p.31885 + 10 ID_nfl.p.31889
 + 11 ID_nfl.p.31894 + 10 ID_nfl.p.31901 + 10 ID_nfl.p.31902
 + 19 ID_nfl.p.31905 + 21 ID_nfl.p.31906 + 19 ID_nfl.p.31908
 + 10 ID_nfl.p.31925 + 11 ID_nfl.p.31928 + 20 ID_nfl.p.31932
 + 13 ID_nfl.p.31934 + 23 ID_nfl.p.31936 + 10 ID_nfl.p.31945
 + 10 ID_nfl.p.31952 + 10 ID_nfl.p.31953 + 10 ID_nfl.p.31958
 + 15 ID_nfl.p.31960 + 20 ID_nfl.p.31965 + 10 ID_nfl.p.31969
 + 10 ID_nfl.p.31972 + 14 ID_nfl.p.31981 + 10 ID_nfl.p.31984
 + 10 ID_nfl.p.31986 + 10 ID_nfl.p.32006 + 25 ID_nfl.p.32010
 + 10 ID_nfl.p.32014 + 12 ID_nfl.p.32018 + 10 ID_nfl.p.32019
 + 20 ID_nfl.p.32029 + 10 ID_nfl.p.32038 + 10 ID_nfl.p.32040
 + 10 ID_nfl.p.32052 + 10 ID_nfl.p.32060 + 10 ID_nfl.p.32065
 + 10 ID_nfl.p.32066 + 11 ID_nfl.p.32079 + 10 ID_nfl.p.32101
 + 10 ID_nfl.p.32123 + 10 ID_nfl.p.32141 + 10 ID_nfl.p.32187
 + 20 ID_nfl.p.32221 + 10 ID_nfl.p.32225 + 10 ID_nfl.p.32231
 + 20 ID_nfl.p.32272 + 10 ID_nfl.p.32292 + 10 ID_nfl.p.32295
 + 10 ID_nfl.p.32306 + 10 ID_nfl.p.32342 + 10 ID_nfl.p.32344
 + 10 ID_nfl.p.32390 + 10 ID_nfl.p.32439 + 20 ID_nfl.p.32464
 + 10 ID_nfl.p.32469 + 10 ID_nfl.p.32523 + 10 ID_nfl.p.32556
 + 10 ID_nfl.p.32612 + 31 ID_nfl.p.5228 + 36 ID_nfl.p.5479 + 20 ID_nfl.p.5967
 + 13 ID_nfl.p.6405 + 13 ID_nfl.p.6762 + 10 ID_nfl.p.6791 + 20 ID_nfl.p.6849
 + 13 ID_nfl.p.7241 + 20 ID_nfl.p.7426 + 14 ID_nfl.p.8261 + 17 ID_nfl.p.8263
 + 16 ID_nfl.p.8285 + 10 ID_nfl.p.8497 + 33 ID_nfl.p.8780 + 10 ID_nfl.p.8930
 + 13 ID_nfl.p.9037 + 24 ID_nfl.p.9496 + 20 ID_nfl.p.9547 + 21 ID_nfl.p.9678
 + 10 ID_nfl.t.1 + 13 ID_nfl.t.11 + 15 ID_nfl.t.13 + 18 ID_nfl.t.14
 + 11 ID_nfl.t.15 + 20 ID_nfl.t.17 + 20 ID_nfl.t.18 + 19 ID_nfl.t.2
 + 14 ID_nfl.t.20 + 15 ID_nfl.t.21 + 10 ID_nfl.t.22 + 20 ID_nfl.t.25
 + 12 ID_nfl.t.27 + 14 ID_nfl.t.28 + 20 ID_nfl.t.29 + 17 ID_nfl.t.3
 + 15 ID_nfl.t.30 + 14 ID_nfl.t.33 + 13 ID_nfl.t.34 + 10 ID_nfl.t.4
 + 17 ID_nfl.t.6 + 10 ID_nfl.t.7 + 10 ID_nfl.t.8 <= 200
_C10: ID_nfl.p.23997 + ID_nfl.p.24057 + ID_nfl.p.24060 + ID_nfl.p.24063
 + ID_nfl.p.24793 + ID_nfl.p.24815 + ID_nfl.p.24822 + ID_nfl.p.24830
 + ID_nfl.p.24851 + ID_nfl.p.24891 + ID_nfl.p.24912 + ID_nfl.p.24913
 + ID_nfl.p.24946 + ID_nfl.p.24961 + ID_nfl.p.24963 + ID_nfl.p.25158
 + ID_nfl.p.25291 + ID_nfl.p.25370 + ID_nfl.p.25712 + ID_nfl.p.25793
 + ID_nfl.p.25798 + ID_nfl.p.25812 + ID_nfl.p.25828 + ID_nfl.p.25876
 + ID_nfl.p.26060 + ID_nfl.p.26253 + ID_nfl.p.26389 + ID_nfl.p.26416
 + ID_nfl.p.26483 + ID_nfl.p.26535 + ID_nfl.p.26612 + ID_nfl.p.26631
 + ID_nfl.p.26644 + ID_nfl.p.26652 + ID_nfl.p.26658 + ID_nfl.p.26660
 + ID_nfl.p.26671 + ID_nfl.p.26696 + ID_nfl.p.26701 + ID_nfl.p.26721
 + ID_nfl.p.26753 + ID_nfl.p.26756 + ID_nfl.p.26767 + ID_nfl.p.26804
 + ID_nfl.p.26805 + ID_nfl.p.26813 + ID_nfl.p.26824 + ID_nfl.p.26949
 + ID_nfl.p.26950 + ID_nfl.p.27135 + ID_nfl.p.27299 + ID_nfl.p.27531
 + ID_nfl.p.27535 + ID_nfl.p.27538 + ID_nfl.p.27560 + ID_nfl.p.27564
 + ID_nfl.p.27570 + ID_nfl.p.27585 + ID_nfl.p.27589 + ID_nfl.p.27590
 + ID_nfl.p.27618 + ID_nfl.p.27619 + ID_nfl.p.27648 + ID_nfl.p.27652
 + ID_nfl.p.27658 + ID_nfl.p.27692 + ID_nfl.p.27711 + ID_nfl.p.27874
 + ID_nfl.p.28026 + ID_nfl.p.28046 + ID_nfl.p.28141 + ID_nfl.p.28214
 + ID_nfl.p.28223 + ID_nfl.p.28234 + ID_nfl.p.28267 + ID_nfl.p.28279
 + ID_nfl.p.28365 + ID_nfl.p.28389 + ID_nfl.p.28392 + ID_nfl.p.28398
 + ID_nfl.p.28402 + ID_nfl.p.28408 + ID_nfl.p.28414 + ID_nfl.p.28417
 + ID_nfl.p.28424 + ID_nfl.p.28425 + ID_nfl.p.28442 + ID_nfl.p.28443
 + ID_nfl.p.28456 + ID_nfl.p.28461 + ID_nfl.p.28464 + ID_nfl.p.28465
 + ID_nfl.p.28473 + ID_nfl.p.28474 + ID_nfl.p.28477 + ID_nfl.p.28480
 + ID_nfl.p.28482 + ID_nfl.p.28493 + ID_nfl.p.28495 + ID_nfl.p.28514
 + ID_nfl.p.28534 + ID_nfl.p.28535 + ID_nfl.p.28545 + ID_nfl.p.28548
 + ID_nfl.p.28556 + ID_nfl.p.28559 + ID_nfl.p.28592 + ID_nfl.p.28617
 + ID_nfl.p.28654 + ID_nfl.p.28691 + ID_nfl.p.28730 + ID_nfl.p.28800
 + ID_nfl.p.28875 + ID_nfl.p.28887 + ID_nfl.p.28947 + ID_nfl.p.28990
 + ID_nfl.p.29102 + ID_nfl.p.29235 + ID_nfl.p.29236 + ID_nfl.p.29238
 + ID_nfl.p.29256 + ID_nfl.p.29257 + ID_nfl.p.29281 + ID_nfl.p.29288
 + ID_nfl.p.29307 + ID_nfl.p.29325 + ID_nfl.p.29327 + ID_nfl.p.29341
 + ID_nfl.p.29344 + ID_nfl.p.29351 + ID_nfl.p.29353 + ID_nfl.p.29369
 + ID_nfl.p.29370 + ID_nfl.p.29372 + ID_nfl.p.29377 + ID_nfl.p.29383
 + ID_nfl.p.29384 + ID_nfl.p.29387 + ID_nfl.p.29390 + ID_nfl.p.29397
 + ID_nfl.p.29410 + ID_nfl.p.29420 + ID_nfl.p.29421 + ID_nfl.p.29422
 + ID_nfl.p.29435 + ID_nfl.p.29440 + ID_nfl.p.29441 + ID_nfl.p.29470
 + ID_nfl.p.29560 + ID_nfl.p.29609 + ID_nfl.p.29650 + ID_nfl.p.29666
 + ID_nfl.p.29678 + ID_nfl.p.29703 + ID_nfl.p.29785 + ID_nfl.p.29913
 + ID_nfl.p.29951 + ID_nfl.p.29973 + ID_nfl.p.30000 + ID_nfl.p.30023
 + ID_nfl.p.30112 + ID_nfl.p.30115 + ID_nfl.p.30121 + ID_nfl.p.30125
 + ID_nfl.p.30132 + ID_nfl.p.30150 + ID_nfl.p.30153 + ID_nfl.p.30154
 + ID_nfl.p.30157 + ID_nfl.p.30161 + ID_nfl.p.30165 + ID_nfl.p.30180
 + ID_nfl.p.30182 + ID_nfl.p.30197 + ID_nfl.p.30209 + ID_nfl.p.30217
 + ID_nfl.p.30223 + ID_nfl.p.30230 + ID_nfl.p.30231 + ID_nfl.p.30232
 + ID_nfl.p.30248 + ID_nfl.p.30256 + ID_nfl.p.30259 + ID_nfl.p.30263
 + ID_nfl.p.30267 + ID_nfl.p.30285 + ID_nfl.p.30292 + ID_nfl.p.30305
 + ID_nfl.p.30352 + ID_nfl.p.30366 + ID_nfl.p.30373 + ID_nfl.p.30396
 + ID_nfl.p.30487 + ID_nfl.p.30502 + ID_nfl.p.30511 + ID_nfl.p.30513
 + ID_nfl.p.30523 + ID_nfl.p.30531 + ID_nfl.p.30551 + ID_nfl.p.30552
 + ID_nfl.p.30563 + ID_nfl.p.30577 + ID_nfl.p.30592 + ID_nfl.p.30614
 + ID_nfl.p.30656 + ID_nfl.p.30784 + ID_nfl.p.30788 + ID_nfl.p.30860
 + ID_nfl.p.30891 + ID_nfl.p.30901 + ID_nfl.p.30959 + ID_nfl.p.30973
 + ID_nfl.p.30977 + ID_nfl.p.30980 + ID_nfl.p.30995 + ID_nfl.p.30996
 + ID_nfl.p.31001 + ID_nfl.p.31008 + ID_nfl.p.31010 + ID_nfl.p.31012
 + ID_nfl.p.31014 + ID_nfl.p.31017 + ID_nfl.p.31019 + ID_nfl.p.31021
 + ID_nfl.p.31029 + ID_nfl.p.31031 + ID_nfl.p.31041 + ID_nfl.p.31051
 + ID_nfl.p.31061 + ID_nfl.p.31068 + ID_nfl.p.31071 + ID_nfl.p.31073
 + ID_nfl.p.31074 + ID_nfl.p.31083 + ID_nfl.p.31093 + ID_nfl.p.31100
 + ID_nfl.p.31102 + ID_nfl.p.31107 + ID_nfl.p.31114 + ID_nfl.p.31126
 + ID_nfl.p.31127 + ID_nfl.p.31139 + ID_nfl.p.31145 + ID_nfl.p.31164
 + ID_nfl.p.31171 + ID_nfl.p.31178 + ID_nfl.p.31180 + ID_nfl.p.31194
 + ID_nfl.p.31198 + ID_nfl.p.31207 + ID_nfl.p.31210 + ID_nfl.p.31220
 + ID_nfl.p.31223 + ID_nfl.p.31226 + ID_nfl.p.31228 + ID_nfl.p.31257
 + ID_nfl.p.31301 + ID_nfl.p.31302 + ID_nfl.p.31320 + ID_nfl.p.31329
 + ID_nfl.p.31347 + ID_nfl.p.31379 + ID_nfl.p.31391 + ID_nfl.p.31394
 + ID_nfl.p.31424 + ID_nfl.p.31425 + ID_nfl.p.31537 + ID_nfl.p.31557
 + ID_nfl.p.31567 + ID_nfl.p.31588 + ID_nfl.p.31601 + ID_nfl.p.31641
 + ID_nfl.p.31662 + ID_nfl.p.31749 + ID_nfl.p.31833 + ID_nfl.p.31840
 + ID_nfl.p.31847 + ID_nfl.p.31852 + ID_nfl.p.31856 + ID_nfl.p.31857
 + ID_nfl.p.31864 + ID_nfl.p.31868 + ID_nfl.p.31882 + ID_nfl.p.31885
 + ID_nfl.p.31889 + ID_nfl.p.31894 + ID_nfl.p.31901 + ID_nfl.p.31902
 + ID_nfl.p.31905 + ID_nfl.p.31906 + ID_nfl.p.31908 + ID_nfl.p.31925
 + ID_nfl.p.31928 + ID_nfl.p.31932 + ID_nfl.p.31934 + ID_nfl.p.31936
 + ID_nfl.p.31945 + ID_nfl.p.31952 + ID_nfl.p.31953 + ID_nfl.p.31958
 + ID_nfl.p.31960 + ID_nfl.p.31965 + ID_nfl.p.31969 + ID_nfl.p.31972
 + ID_nfl.p.31981 + ID_nfl.p.31984 + ID_nfl.p.31986 + ID_nfl.p.32006
 + ID_nfl.p.32010 + ID_nfl.p.32014 + ID_nfl.p.32018 + ID_nfl.p.32019
 + ID_nfl.p.32029 + ID_nfl.p.32038 + ID_nfl.p.32040 + ID_nfl.p.32052
 + ID_nfl.p.32060 + ID_nfl.p.32065 + ID_nfl.p.32066 + ID_nfl.p.32079
 + ID_nfl.p.32101 + ID_nfl.p.32123 + ID_nfl.p.32141 + ID_nfl.p.32187
 + ID_nfl.p.32221 + ID_nfl.p.32225 + ID_nfl.p.32231 + ID_nfl.p.32272
 + ID_nfl.p.32292 + ID_nfl.p.32295 + ID_nfl.p.32306 + ID_nfl.p.32342
 + ID_nfl.p.32344 + ID_nfl.p.32390 + ID_nfl.p.32439 + ID_nfl.p.32464
 + ID_nfl.p.32469 + ID_nfl.p.32523 + ID_nfl.p.32556 + ID_nfl.p.32612
 + ID_nfl.p.5228 + ID_nfl.p.5479 + ID_nfl.p.5967 + ID_nfl.p.6405
 + ID_nfl.p.6762 + ID_nfl.p.6791 + ID_nfl.p.6849 + ID_nfl.p.7241
 + ID_nfl.p.7426 + ID_nfl.p.8261 + ID_nfl.p.8263 + ID_nfl.p.8285
 + ID_nfl.p.8497 + ID_nfl.p.8780 + ID_nfl.p.8930 + ID_nfl.p.9037
 + ID_nfl.p.9496 + ID_nfl.p.9547 + ID_nfl.p.9678 + ID_nfl.t.1 + ID_nfl.t.11
 + ID_nfl.t.13 + ID_nfl.t.14 + ID_nfl.t.15 + ID_nfl.t.17 + ID_nfl.t.18
 + ID_nfl.t.2 + ID_nfl.t.20 + ID_nfl.t.21 + ID_nfl.t.22 + ID_nfl.t.25
 + ID_nfl.t.27 + ID_nfl.t.28 + ID_nfl.t.29 + ID_nfl.t.3 + ID_nfl.t.30
 + ID_nfl.t.33 + ID_nfl.t.34 + ID_nfl.t.4 + ID_nfl.t.6 + ID_nfl.t.7
 + ID_nfl.t.8 = 9
_C2: ID_nfl.p.24060 + ID_nfl.p.24822 + ID_nfl.p.25712 + ID_nfl.p.25798
 + ID_nfl.p.25812 + ID_nfl.p.26483 + ID_nfl.p.26696 + ID_nfl.p.26721
 + ID_nfl.p.26949 + ID_nfl.p.27531 + ID_nfl.p.27560 + ID_nfl.p.27564
 + ID_nfl.p.27590 + ID_nfl.p.27692 + ID_nfl.p.27711 + ID_nfl.p.28389
 + ID_nfl.p.28477 + ID_nfl.p.28535 + ID_nfl.p.29235 + ID_nfl.p.29236
 + ID_nfl.p.29325 + ID_nfl.p.29327 + ID_nfl.p.29369 + ID_nfl.p.29421
 + ID_nfl.p.29435 + ID_nfl.p.29441 + ID_nfl.p.30115 + ID_nfl.p.30125
 + ID_nfl.p.30165 + ID_nfl.p.30217 + ID_nfl.p.30248 + ID_nfl.p.30366
 + ID_nfl.p.30563 + ID_nfl.p.30614 + ID_nfl.p.30788 + ID_nfl.p.30973
 + ID_nfl.p.30977 + ID_nfl.p.30980 + ID_nfl.p.31301 + ID_nfl.p.31833
 + ID_nfl.p.31847 + ID_nfl.p.31932 + ID_nfl.p.31936 + ID_nfl.p.31965
 + ID_nfl.p.32010 + ID_nfl.p.32029 + ID_nfl.p.32221 + ID_nfl.p.32272
 + ID_nfl.p.32464 + ID_nfl.p.5228 + ID_nfl.p.5479 + ID_nfl.p.5967
 + ID_nfl.p.6849 + ID_nfl.p.7426 + ID_nfl.p.8780 + ID_nfl.p.9547
 + ID_nfl.p.9678 = 1
_C3: ID_nfl.t.1 + ID_nfl.t.11 + ID_nfl.t.13 + ID_nfl.t.14 + ID_nfl.t.15
 + ID_nfl.t.17 + ID_nfl.t.18 + ID_nfl.t.2 + ID_nfl.t.20 + ID_nfl.t.21
 + ID_nfl.t.22 + ID_nfl.t.25 + ID_nfl.t.27 + ID_nfl.t.28 + ID_nfl.t.29
 + ID_nfl.t.3 + ID_nfl.t.30 + ID_nfl.t.33 + ID_nfl.t.34 + ID_nfl.t.4
 + ID_nfl.t.6 + ID_nfl.t.7 + ID_nfl.t.8 = 1
_C4: ID_nfl.p.24815 + ID_nfl.p.24912 + ID_nfl.p.24913 + ID_nfl.p.25158
 + ID_nfl.p.26389 + ID_nfl.p.26535 + ID_nfl.p.26660 + ID_nfl.p.26671
 + ID_nfl.p.26753 + ID_nfl.p.26804 + ID_nfl.p.26805 + ID_nfl.p.26813
 + ID_nfl.p.27135 + ID_nfl.p.27585 + ID_nfl.p.27658 + ID_nfl.p.28141
 + ID_nfl.p.28223 + ID_nfl.p.28398 + ID_nfl.p.28424 + ID_nfl.p.28442
 + ID_nfl.p.28461 + ID_nfl.p.28465 + ID_nfl.p.28474 + ID_nfl.p.28482
 + ID_nfl.p.28514 + ID_nfl.p.28556 + ID_nfl.p.28654 + ID_nfl.p.28887
 + ID_nfl.p.28990 + ID_nfl.p.29238 + ID_nfl.p.29307 + ID_nfl.p.29353
 + ID_nfl.p.29370 + ID_nfl.p.29377 + ID_nfl.p.29383 + ID_nfl.p.29384
 + ID_nfl.p.29387 + ID_nfl.p.29390 + ID_nfl.p.29410 + ID_nfl.p.29470
 + ID_nfl.p.29560 + ID_nfl.p.29650 + ID_nfl.p.29951 + ID_nfl.p.30000
 + ID_nfl.p.30121 + ID_nfl.p.30154 + ID_nfl.p.30161 + ID_nfl.p.30180
 + ID_nfl.p.30232 + ID_nfl.p.30256 + ID_nfl.p.30292 + ID_nfl.p.30305
 + ID_nfl.p.30552 + ID_nfl.p.30592 + ID_nfl.p.30860 + ID_nfl.p.31001
 + ID_nfl.p.31008 + ID_nfl.p.31029 + ID_nfl.p.31041 + ID_nfl.p.31074
 + ID_nfl.p.31100 + ID_nfl.p.31139 + ID_nfl.p.31145 + ID_nfl.p.31171
 + ID_nfl.p.31207 + ID_nfl.p.31228 + ID_nfl.p.31302 + ID_nfl.p.31379
 + ID_nfl.p.31394 + ID_nfl.p.31424 + ID_nfl.p.31425 + ID_nfl.p.31537
 + ID_nfl.p.31567 + ID_nfl.p.31662 + ID_nfl.p.31856 + ID_nfl.p.31885
 + ID_nfl.p.31902 + ID_nfl.p.31905 + ID_nfl.p.31906 + ID_nfl.p.31934
 + ID_nfl.p.31945 + ID_nfl.p.31960 + ID_nfl.p.31972 + ID_nfl.p.31984
 + ID_nfl.p.31986 + ID_nfl.p.32014 + ID_nfl.p.32018 + ID_nfl.p.32052
 + ID_nfl.p.32065 + ID_nfl.p.32066 + ID_nfl.p.32344 + ID_nfl.p.32390
 + ID_nfl.p.32439 + ID_nfl.p.7241 + ID_nfl.p.8261 >= 2
_C5: ID_nfl.p.24815 + ID_nfl.p.24912 + ID_nfl.p.24913 + ID_nfl.p.25158
 + ID_nfl.p.26389 + ID_nfl.p.26535 + ID_nfl.p.26660 + ID_nfl.p.26671
 + ID_nfl.p.26753 + ID_nfl.p.26804 + ID_nfl.p.26805 + ID_nfl.p.26813
 + ID_nfl.p.27135 + ID_nfl.p.27585 + ID_nfl.p.27658 + ID_nfl.p.28141
 + ID_nfl.p.28223 + ID_nfl.p.28398 + ID_nfl.p.28424 + ID_nfl.p.28442
 + ID_nfl.p.28461 + ID_nfl.p.28465 + ID_nfl.p.28474 + ID_nfl.p.28482
 + ID_nfl.p.28514 + ID_nfl.p.28556 + ID_nfl.p.28654 + ID_nfl.p.28887
 + ID_nfl.p.28990 + ID_nfl.p.29238 + ID_nfl.p.29307 + ID_nfl.p.29353
 + ID_nfl.p.29370 + ID_nfl.p.29377 + ID_nfl.p.29383 + ID_nfl.p.29384
 + ID_nfl.p.29387 + ID_nfl.p.29390 + ID_nfl.p.29410 + ID_nfl.p.29470
 + ID_nfl.p.29560 + ID_nfl.p.29650 + ID_nfl.p.29951 + ID_nfl.p.30000
 + ID_nfl.p.30121 + ID_nfl.p.30154 + ID_nfl.p.30161 + ID_nfl.p.30180
 + ID_nfl.p.30232 + ID_nfl.p.30256 + ID_nfl.p.30292 + ID_nfl.p.30305
 + ID_nfl.p.30552 + ID_nfl.p.30592 + ID_nfl.p.30860 + ID_nfl.p.31001
 + ID_nfl.p.31008 + ID_nfl.p.31029 + ID_nfl.p.31041 + ID_nfl.p.31074
 + ID_nfl.p.31100 + ID_nfl.p.31139 + ID_nfl.p.31145 + ID_nfl.p.31171
 + ID_nfl.p.31207 + ID_nfl.p.31228 + ID_nfl.p.31302 + ID_nfl.p.31379
 + ID_nfl.p.31394 + ID_nfl.p.31424 + ID_nfl.p.31425 + ID_nfl.p.31537
 + ID_nfl.p.31567 + ID_nfl.p.31662 + ID_nfl.p.31856 + ID_nfl.p.31885
 + ID_nfl.p.31902 + ID_nfl.p.31905 + ID_nfl.p.31906 + ID_nfl.p.31934
 + ID_nfl.p.31945 + ID_nfl.p.31960 + ID_nfl.p.31972 + ID_nfl.p.31984
 + ID_nfl.p.31986 + ID_nfl.p.32014 + ID_nfl.p.32018 + ID_nfl.p.32052
 + ID_nfl.p.32065 + ID_nfl.p.32066 + ID_nfl.p.32344 + ID_nfl.p.32390
 + ID_nfl.p.32439 + ID_nfl.p.7241 + ID_nfl.p.8261 <= 3
_C6: ID_nfl.p.23997 + ID_nfl.p.24057 + ID_nfl.p.24063 + ID_nfl.p.24793
 + ID_nfl.p.24851 + ID_nfl.p.24963 + ID_nfl.p.25793 + ID_nfl.p.25828
 + ID_nfl.p.25876 + ID_nfl.p.26060 + ID_nfl.p.26631 + ID_nfl.p.26652
 + ID_nfl.p.26701 + ID_nfl.p.26767 + ID_nfl.p.27535 + ID_nfl.p.27570
 + ID_nfl.p.27589 + ID_nfl.p.27618 + ID_nfl.p.27619 + ID_nfl.p.27652
 + ID_nfl.p.27874 + ID_nfl.p.28026 + ID_nfl.p.28046 + ID_nfl.p.28214
 + ID_nfl.p.28234 + ID_nfl.p.28279 + ID_nfl.p.28392 + ID_nfl.p.28402
 + ID_nfl.p.28408 + ID_nfl.p.28414 + ID_nfl.p.28417 + ID_nfl.p.28425
 + ID_nfl.p.28464 + ID_nfl.p.28493 + ID_nfl.p.28495 + ID_nfl.p.28534
 + ID_nfl.p.28691 + ID_nfl.p.28730 + ID_nfl.p.28800 + ID_nfl.p.28947
 + ID_nfl.p.29256 + ID_nfl.p.29257 + ID_nfl.p.29281 + ID_nfl.p.29288
 + ID_nfl.p.29341 + ID_nfl.p.29351 + ID_nfl.p.29397 + ID_nfl.p.29420
 + ID_nfl.p.29440 + ID_nfl.p.29609 + ID_nfl.p.29678 + ID_nfl.p.29703
 + ID_nfl.p.29785 + ID_nfl.p.29973 + ID_nfl.p.30023 + ID_nfl.p.30150
 + ID_nfl.p.30153 + ID_nfl.p.30182 + ID_nfl.p.30197 + ID_nfl.p.30209
 + ID_nfl.p.30223 + ID_nfl.p.30230 + ID_nfl.p.30231 + ID_nfl.p.30285
 + ID_nfl.p.30352 + ID_nfl.p.30396 + ID_nfl.p.30487 + ID_nfl.p.30502
 + ID_nfl.p.30511 + ID_nfl.p.30513 + ID_nfl.p.30531 + ID_nfl.p.30551
 + ID_nfl.p.30656 + ID_nfl.p.30901 + ID_nfl.p.30959 + ID_nfl.p.30996
 + ID_nfl.p.31010 + ID_nfl.p.31014 + ID_nfl.p.31017 + ID_nfl.p.31021
 + ID_nfl.p.31031 + ID_nfl.p.31051 + ID_nfl.p.31061 + ID_nfl.p.31073
 + ID_nfl.p.31083 + ID_nfl.p.31102 + ID_nfl.p.31114 + ID_nfl.p.31164
 + ID_nfl.p.31178 + ID_nfl.p.31180 + ID_nfl.p.31194 + ID_nfl.p.31198
 + ID_nfl.p.31210 + ID_nfl.p.31223 + ID_nfl.p.31226 + ID_nfl.p.31320
 + ID_nfl.p.31347 + ID_nfl.p.31391 + ID_nfl.p.31557 + ID_nfl.p.31588
 + ID_nfl.p.31601 + ID_nfl.p.31641 + ID_nfl.p.31857 + ID_nfl.p.31864
 + ID_nfl.p.31868 + ID_nfl.p.31889 + ID_nfl.p.31894 + ID_nfl.p.31908
 + ID_nfl.p.31925 + ID_nfl.p.31952 + ID_nfl.p.31958 + ID_nfl.p.31981
 + ID_nfl.p.32006 + ID_nfl.p.32019 + ID_nfl.p.32038 + ID_nfl.p.32040
 + ID_nfl.p.32079 + ID_nfl.p.32101 + ID_nfl.p.32123 + ID_nfl.p.32141
 + ID_nfl.p.32187 + ID_nfl.p.32231 + ID_nfl.p.32292 + ID_nfl.p.32342
 + ID_nfl.p.32469 + ID_nfl.p.32523 + ID_nfl.p.32556 + ID_nfl.p.32612
 + ID_nfl.p.6762 + ID_nfl.p.8263 + ID_nfl.p.8930 + ID_nfl.p.9037
 + ID_nfl.p.9496 >= 3
_C7: ID_nfl.p.23997 + ID_nfl.p.24057 + ID_nfl.p.24063 + ID_nfl.p.24793
 + ID_nfl.p.24851 + ID_nfl.p.24963 + ID_nfl.p.25793 + ID_nfl.p.25828
 + ID_nfl.p.25876 + ID_nfl.p.26060 + ID_nfl.p.26631 + ID_nfl.p.26652
 + ID_nfl.p.26701 + ID_nfl.p.26767 + ID_nfl.p.27535 + ID_nfl.p.27570
 + ID_nfl.p.27589 + ID_nfl.p.27618 + ID_nfl.p.27619 + ID_nfl.p.27652
 + ID_nfl.p.27874 + ID_nfl.p.28026 + ID_nfl.p.28046 + ID_nfl.p.28214
 + ID_nfl.p.28234 + ID_nfl.p.28279 + ID_nfl.p.28392 + ID_nfl.p.28402
 + ID_nfl.p.28408 + ID_nfl.p.28414 + ID_nfl.p.28417 + ID_nfl.p.28425
 + ID_nfl.p.28464 + ID_nfl.p.28493 + ID_nfl.p.28495 + ID_nfl.p.28534
 + ID_nfl.p.28691 + ID_nfl.p.28730 + ID_nfl.p.28800 + ID_nfl.p.28947
 + ID_nfl.p.29256 + ID_nfl.p.29257 + ID_nfl.p.29281 + ID_nfl.p.29288
 + ID_nfl.p.29341 + ID_nfl.p.29351 + ID_nfl.p.29397 + ID_nfl.p.29420
 + ID_nfl.p.29440 + ID_nfl.p.29609 + ID_nfl.p.29678 + ID_nfl.p.29703
 + ID_nfl.p.29785 + ID_nfl.p.29973 + ID_nfl.p.30023 + ID_nfl.p.30150
 + ID_nfl.p.30153 + ID_nfl.p.30182 + ID_nfl.p.30197 + ID_nfl.p.30209
 + ID_nfl.p.30223 + ID_nfl.p.30230 + ID_nfl.p.30231 + ID_nfl.p.30285
 + ID_nfl.p.30352 + ID_nfl.p.30396 + ID_nfl.p.30487 + ID_nfl.p.30502
 + ID_nfl.p.30511 + ID_nfl.p.30513 + ID_nfl.p.30531 + ID_nfl.p.30551
 + ID_nfl.p.30656 + ID_nfl.p.30901 + ID_nfl.p.30959 + ID_nfl.p.30996
 + ID_nfl.p.31010 + ID_nfl.p.31014 + ID_nfl.p.31017 + ID_nfl.p.31021
 + ID_nfl.p.31031 + ID_nfl.p.31051 + ID_nfl.p.31061 + ID_nfl.p.31073
 + ID_nfl.p.31083 + ID_nfl.p.31102 + ID_nfl.p.31114 + ID_nfl.p.31164
 + ID_nfl.p.31178 + ID_nfl.p.31180 + ID_nfl.p.31194 + ID_nfl.p.31198
 + ID_nfl.p.31210 + ID_nfl.p.31223 + ID_nfl.p.31226 + ID_nfl.p.31320
 + ID_nfl.p.31347 + ID_nfl.p.31391 + ID_nfl.p.31557 + ID_nfl.p.31588
 + ID_nfl.p.31601 + ID_nfl.p.31641 + ID_nfl.p.31857 + ID_nfl.p.31864
 + ID_nfl.p.31868 + ID_nfl.p.31889 + ID_nfl.p.31894 + ID_nfl.p.31908
 + ID_nfl.p.31925 + ID_nfl.p.31952 + ID_nfl.p.31958 + ID_nfl.p.31981
 + ID_nfl.p.32006 + ID_nfl.p.32019 + ID_nfl.p.32038 + ID_nfl.p.32040
 + ID_nfl.p.32079 + ID_nfl.p.32101 + ID_nfl.p.32123 + ID_nfl.p.32141
 + ID_nfl.p.32187 + ID_nfl.p.32231 + ID_nfl.p.32292 + ID_nfl.p.32342
 + ID_nfl.p.32469 + ID_nfl.p.32523 + ID_nfl.p.32556 + ID_nfl.p.32612
 + ID_nfl.p.6762 + ID_nfl.p.8263 + ID_nfl.p.8930 + ID_nfl.p.9037
 + ID_nfl.p.9496 <= 4
_C8: ID_nfl.p.24830 + ID_nfl.p.24891 + ID_nfl.p.24946 + ID_nfl.p.24961
 + ID_nfl.p.25291 + ID_nfl.p.25370 + ID_nfl.p.26253 + ID_nfl.p.26416
 + ID_nfl.p.26612 + ID_nfl.p.26644 + ID_nfl.p.26658 + ID_nfl.p.26756
 + ID_nfl.p.26824 + ID_nfl.p.26950 + ID_nfl.p.27299 + ID_nfl.p.27538
 + ID_nfl.p.27648 + ID_nfl.p.28267 + ID_nfl.p.28365 + ID_nfl.p.28443
 + ID_nfl.p.28456 + ID_nfl.p.28473 + ID_nfl.p.28480 + ID_nfl.p.28545
 + ID_nfl.p.28548 + ID_nfl.p.28559 + ID_nfl.p.28592 + ID_nfl.p.28617
 + ID_nfl.p.28875 + ID_nfl.p.29102 + ID_nfl.p.29344 + ID_nfl.p.29372
 + ID_nfl.p.29422 + ID_nfl.p.29666 + ID_nfl.p.29913 + ID_nfl.p.30112
 + ID_nfl.p.30132 + ID_nfl.p.30157 + ID_nfl.p.30259 + ID_nfl.p.30263
 + ID_nfl.p.30267 + ID_nfl.p.30373 + ID_nfl.p.30523 + ID_nfl.p.30577
 + ID_nfl.p.30784 + ID_nfl.p.30891 + ID_nfl.p.30995 + ID_nfl.p.31012
 + ID_nfl.p.31019 + ID_nfl.p.31068 + ID_nfl.p.31071 + ID_nfl.p.31093
 + ID_nfl.p.31107 + ID_nfl.p.31126 + ID_nfl.p.31127 + ID_nfl.p.31220
 + ID_nfl.p.31257 + ID_nfl.p.31329 + ID_nfl.p.31749 + ID_nfl.p.31840
 + ID_nfl.p.31852 + ID_nfl.p.31882 + ID_nfl.p.31901 + ID_nfl.p.31928
 + ID_nfl.p.31953 + ID_nfl.p.31969 + ID_nfl.p.32060 + ID_nfl.p.32225
 + ID_nfl.p.32295 + ID_nfl.p.32306 + ID_nfl.p.6405 + ID_nfl.p.6791
 + ID_nfl.p.8285 + ID_nfl.p.8497 >= 2
_C9: ID_nfl.p.24830 + ID_nfl.p.24891 + ID_nfl.p.24946 + ID_nfl.p.24961
 + ID_nfl.p.25291 + ID_nfl.p.25370 + ID_nfl.p.26253 + ID_nfl.p.26416
 + ID_nfl.p.26612 + ID_nfl.p.26644 + ID_nfl.p.26658 + ID_nfl.p.26756
 + ID_nfl.p.26824 + ID_nfl.p.26950 + ID_nfl.p.27299 + ID_nfl.p.27538
 + ID_nfl.p.27648 + ID_nfl.p.28267 + ID_nfl.p.28365 + ID_nfl.p.28443
 + ID_nfl.p.28456 + ID_nfl.p.28473 + ID_nfl.p.28480 + ID_nfl.p.28545
 + ID_nfl.p.28548 + ID_nfl.p.28559 + ID_nfl.p.28592 + ID_nfl.p.28617
 + ID_nfl.p.28875 + ID_nfl.p.29102 + ID_nfl.p.29344 + ID_nfl.p.29372
 + ID_nfl.p.29422 + ID_nfl.p.29666 + ID_nfl.p.29913 + ID_nfl.p.30112
 + ID_nfl.p.30132 + ID_nfl.p.30157 + ID_nfl.p.30259 + ID_nfl.p.30263
 + ID_nfl.p.30267 + ID_nfl.p.30373 + ID_nfl.p.30523 + ID_nfl.p.30577
 + ID_nfl.p.30784 + ID_nfl.p.30891 + ID_nfl.p.30995 + ID_nfl.p.31012
 + ID_nfl.p.31019 + ID_nfl.p.31068 + ID_nfl.p.31071 + ID_nfl.p.31093
 + ID_nfl.p.31107 + ID_nfl.p.31126 + ID_nfl.p.31127 + ID_nfl.p.31220
 + ID_nfl.p.31257 + ID_nfl.p.31329 + ID_nfl.p.31749 + ID_nfl.p.31840
 + ID_nfl.p.31852 + ID_nfl.p.31882 + ID_nfl.p.31901 + ID_nfl.p.31928
 + ID_nfl.p.31953 + ID_nfl.p.31969 + ID_nfl.p.32060 + ID_nfl.p.32225
 + ID_nfl.p.32295 + ID_nfl.p.32306 + ID_nfl.p.6405 + ID_nfl.p.6791
 + ID_nfl.p.8285 + ID_nfl.p.8497 <= 3
Binaries
ID_nfl.p.23997
ID_nfl.p.24057
ID_nfl.p.24060
ID_nfl.p.24063
ID_nfl.p.24793
ID_nfl.p.24815
ID_nfl.p.24822
ID_nfl.p.24830
ID_nfl.p.24851
ID_nfl.p.24891
ID_nfl.p.24912
ID_nfl.p.24913
ID_nfl.p.24946
ID_nfl.p.24961
ID_nfl.p.24963
ID_nfl.p.25158
ID_nfl.p.25291
ID_nfl.p.25370
ID_nfl.p.25712
ID_nfl.p.25793
ID_nfl.p.25798
ID_nfl.p.25812
ID_nfl.p.25828
ID_nfl.p.25876
ID_nfl.p.26060
ID_nfl.p.26253
ID_nfl.p.26389
ID_nfl.p.26416
ID_nfl.p.26483
ID_nfl.p.26535
ID_nfl.p.26612
ID_nfl.p.26631
ID_nfl.p.26644
ID_nfl.p.26652
ID_nfl.p.26658
ID_nfl.p.26660
ID_nfl.p.26671
ID_nfl.p.26696
ID_nfl.p.26701
ID_nfl.p.26721
ID_nfl.p.26753
ID_nfl.p.26756
ID_nfl.p.26767
ID_nfl.p.26804
ID_nfl.p.26805
ID_nfl.p.26813
ID_nfl.p.26824
ID_nfl.p.26949
ID_nfl.p.26950
ID_nfl.p.27135
ID_nfl.p.27299
ID_nfl.p.27531
ID_nfl.p.27535
ID_nfl.p.27538
ID_nfl.p.27560
ID_nfl.p.27564
ID_nfl.p.27570
ID_nfl.p.27585
ID_nfl.p.27589
ID_nfl.p.27590
ID_nfl.p.27618
ID_nfl.p.27619
ID_nfl.p.27648
ID_nfl.p.27652
ID_nfl.p.27658
ID_nfl.p.27692
ID_nfl.p.27711
ID_nfl.p.27874
ID_nfl.p.28026
ID_nfl.p.28046
ID_nfl.p.28141
ID_nfl.p.28214
ID_nfl.p.28223
ID_nfl.p.28234
ID_nfl.p.28267
ID_nfl.p.28279
ID_nfl.p.28365
ID_nfl.p.28389
ID_nfl.p.28392
ID_nfl.p.28398
ID_nfl.p.28402
ID_nfl.p.28408
ID_nfl.p.28414
ID_nfl.p.28417
ID_nfl.p.28424
ID_nfl.p.28425
ID_nfl.p.28442
ID_nfl.p.28443
ID_nfl.p.28456
ID_nfl.p.28461
ID_nfl.p.28464
ID_nfl.p.28465
ID_nfl.p.28473
ID_nfl.p.28474
ID_nfl.p.28477
ID_nfl.p.28480
ID_nfl.p.28482
ID_nfl.p.28493
ID_nfl.p.28495
ID_nfl.p.28514
ID_nfl.p.28534
ID_nfl.p.28535
ID_nfl.p.28545
ID_nfl.p.28548
ID_nfl.p.28556
ID_nfl.p.28559
ID_nfl.p.28592
ID_nfl.p.28617
ID_nfl.p.28654
ID_nfl.p.28691
ID_nfl.p.28730
ID_nfl.p.28800
ID_nfl.p.28875
ID_nfl.p.28887
ID_nfl.p.28947
ID_nfl.p.28990
ID_nfl.p.29102
ID_nfl.p.29235
ID_nfl.p.29236
ID_nfl.p.29238
ID_nfl.p.29256
ID_nfl.p.29257
ID_nfl.p.29281
ID_nfl.p.29288
ID_nfl.p.29307
ID_nfl.p.29325
ID_nfl.p.29327
ID_nfl.p.29341
ID_nfl.p.29344
ID_nfl.p.29351
ID_nfl.p.29353
ID_nfl.p.29369
ID_nfl.p.29370
ID_nfl.p.29372
ID_nfl.p.29377
ID_nfl.p.29383
ID_nfl.p.29384
ID_nfl.p.29387
ID_nfl.p.29390
ID_nfl.p.29397
ID_nfl.p.29410
ID_nfl.p.29420
ID_nfl.p.29421
ID_nfl.p.29422
ID_nfl.p.29435
ID_nfl.p.29440
ID_nfl.p.29441
ID_nfl.p.29470
ID_nfl.p.29560
ID_nfl.p.29609
ID_nfl.p.29650
ID_nfl.p.29666
ID_nfl.p.29678
ID_nfl.p.29703
ID_nfl.p.29785
ID_nfl.p.29913
ID_nfl.p.29951
ID_nfl.p.29973
ID_nfl.p.30000
ID_nfl.p.30023
ID_nfl.p.30112
ID_nfl.p.30115
ID_nfl.p.30121
ID_nfl.p.30125
ID_nfl.p.30132
ID_nfl.p.30150
ID_nfl.p.30153
ID_nfl.p.30154
ID_nfl.p.30157
ID_nfl.p.30161
ID_nfl.p.30165
ID_nfl.p.30180
ID_nfl.p.30182
ID_nfl.p.30197
ID_nfl.p.30209
ID_nfl.p.30217
ID_nfl.p.30223
ID_nfl.p.30230
ID_nfl.p.30231
ID_nfl.p.30232
ID_nfl.p.30248
ID_nfl.p.30256
ID_nfl.p.30259
ID_nfl.p.30263
ID_nfl.p.30267
ID_nfl.p.30285
ID_nfl.p.30292
ID_nfl.p.30305
ID_nfl.p.30352
ID_nfl.p.30366
ID_nfl.p.30373
ID_nfl.p.30396
ID_nfl.p.30487
ID_nfl.p.30502
ID_nfl.p.30511
ID_nfl.p.30513
ID_nfl.p.30523
ID_nfl.p.30531
ID_nfl.p.30551
ID_nfl.p.30552
ID_nfl.p.30563
ID_nfl.p.30577
ID_nfl.p.30592
ID_nfl.p.30614
ID_nfl.p.30656
ID_nfl.p.30784
ID_nfl.p.30788
ID_nfl.p.30860
ID_nfl.p.30891
ID_nfl.p.30901
ID_nfl.p.30959
ID_nfl.p.30973
ID_nfl.p.30977
ID_nfl.p.30980
ID_nfl.p.30995
ID_nfl.p.30996
ID_nfl.p.31001
ID_nfl.p.31008
ID_nfl.p.31010
ID_nfl.p.31012
ID_nfl.p.31014
ID_nfl.p.31017
ID_nfl.p.31019
ID_nfl.p.31021
ID_nfl.p.31029
ID_nfl.p.31031
ID_nfl.p.31041
ID_nfl.p.31051
ID_nfl.p.31061
ID_nfl.p.31068
ID_nfl.p.31071
ID_nfl.p.31073
ID_nfl.p.31074
ID_nfl.p.31083
ID_nfl.p.31093
ID_nfl.p.31100
ID_nfl.p.31102
ID_nfl.p.31107
ID_nfl.p.31114
ID_nfl.p.31126
ID_nfl.p.31127
ID_nfl.p.31139
ID_nfl.p.31145
ID_nfl.p.31164
ID_nfl.p.31171
ID_nfl.p.31178
ID_nfl.p.31180
ID_nfl.p.31194
ID_nfl.p.31198
ID_nfl.p.31207
ID_nfl.p.31210
ID_nfl.p.31220
ID_nfl.p.31223
ID_nfl.p.31226
ID_nfl.p.31228
ID_nfl.p.31257
ID_nfl.p.31301
ID_nfl.p.31302
ID_nfl.p.31320
ID_nfl.p.31329
ID_nfl.p.31347
ID_nfl.p.31379
ID_nfl.p.31391
ID_nfl.p.31394
ID_nfl.p.31424
ID_nfl.p.31425
ID_nfl.p.31537
ID_nfl.p.31557
ID_nfl.p.31567
ID_nfl.p.31588
ID_nfl.p.31601
ID_nfl.p.31641
ID_nfl.p.31662
ID_nfl.p.31749
ID_nfl.p.31833
ID_nfl.p.31840
ID_nfl.p.31847
ID_nfl.p.31852
ID_nfl.p.31856
ID_nfl.p.31857
ID_nfl.p.31864
ID_nfl.p.31868
ID_nfl.p.31882
ID_nfl.p.31885
ID_nfl.p.31889
ID_nfl.p.31894
ID_nfl.p.31901
ID_nfl.p.31902
ID_nfl.p.31905
ID_nfl.p.31906
ID_nfl.p.31908
ID_nfl.p.31925
ID_nfl.p.31928
ID_nfl.p.31932
ID_nfl.p.31934
ID_nfl.p.31936
ID_nfl.p.31945
ID_nfl.p.31952
ID_nfl.p.31953
ID_nfl.p.31958
ID_nfl.p.31960
ID_nfl.p.31965
ID_nfl.p.31969
ID_nfl.p.31972
ID_nfl.p.31981
ID_nfl.p.31984
ID_nfl.p.31986
ID_nfl.p.32006
ID_nfl.p.32010
ID_nfl.p.32014
ID_nfl.p.32018
ID_nfl.p.32019
ID_nfl.p.32029
ID_nfl.p.32038
ID_nfl.p.32040
ID_nfl.p.32052
ID_nfl.p.32060
ID_nfl.p.32065
ID_nfl.p.32066
ID_nfl.p.32079
ID_nfl.p.32101
ID_nfl.p.32123
ID_nfl.p.32141
ID_nfl.p.32187
ID_nfl.p.32221
ID_nfl.p.32225
ID_nfl.p.32231
ID_nfl.p.32272
ID_nfl.p.32292
ID_nfl.p.32295
ID_nfl.p.32306
ID_nfl.p.32342
ID_nfl.p.32344
ID_nfl.p.32390
ID_nfl.p.32439
ID_nfl.p.32464
ID_nfl.p.32469
ID_nfl.p.32523
ID_nfl.p.32556
ID_nfl.p.32612
ID_nfl.p.5228
ID_nfl.p.5479
ID_nfl.p.5967
ID_nfl.p.6405
ID_nfl.p.6762
ID_nfl.p.6791
ID_nfl.p.6849
ID_nfl.p.7241
ID_nfl.p.7426
ID_nfl.p.8261
ID_nfl.p.8263
ID_nfl.p.8285
ID_nfl.p.8497
ID_nfl.p.8780
ID_nfl.p.8930
ID_nfl.p.9037
ID_nfl.p.9496
ID_nfl.p.9547
ID_nfl.p.9678
ID_nfl.t.1
ID_nfl.t.11
ID_nfl.t.13
ID_nfl.t.14
ID_nfl.t.15
ID_nfl.t.17
ID_nfl.t.18
ID_nfl.t.2
ID_nfl.t.20
ID_nfl.t.21
ID_nfl.t.22
ID_nfl.t.25
ID_nfl.t.27
ID_nfl.t.28
ID_nfl.t.29
ID_nfl.t.3
ID_nfl.t.30
ID_nfl.t.33
ID_nfl.t.34
ID_nfl.t.4
ID_nfl.t.6
ID_nfl.t.7
ID_nfl.t.8
End
